p ocr 493 493 1189
1 494
1 497
2 494
2 495
3 495
3 496
4 496
4 497
4 500
5 497
5 498
6 498
6 499
7 499
7 500
7 502
8 500
8 501
9 501
9 502
9 503
10 502
10 503
10 506
11 503
11 504
12 504
12 505
13 505
13 506
13 507
14 506
14 507
14 510
15 507
15 508
16 508
16 509
17 509
17 510
17 511
18 510
18 511
18 514
19 511
19 512
20 512
20 513
21 513
21 514
21 516
22 514
22 515
23 515
23 516
23 518
24 516
24 517
25 517
25 518
25 522
26 518
26 519
27 519
27 520
28 520
28 521
29 521
29 522
29 523
30 522
30 523
30 524
31 523
31 524
31 526
32 524
32 525
33 525
33 526
33 528
34 526
34 527
35 527
35 528
35 532
36 528
36 529
37 529
37 530
38 530
38 531
39 531
39 532
39 534
40 532
40 533
41 533
41 534
41 537
42 534
42 535
43 535
43 536
44 536
44 537
44 539
45 537
45 538
46 538
46 539
46 541
47 539
47 540
48 540
48 541
48 542
49 541
49 542
49 546
50 542
50 543
51 543
51 544
52 544
52 545
53 545
53 546
53 547
54 546
54 547
54 550
55 547
55 548
56 548
56 549
57 549
57 550
57 551
58 550
58 551
58 555
59 551
59 552
60 552
60 553
61 553
61 554
62 554
62 555
62 558
63 555
63 556
64 556
64 557
65 557
65 558
65 562
66 558
66 559
67 559
67 560
68 560
68 561
69 561
69 562
69 564
70 562
70 563
71 563
71 564
71 566
72 564
72 565
73 565
73 566
73 569
74 566
74 567
75 567
75 568
76 568
76 569
76 570
77 569
77 570
77 573
78 570
78 571
79 571
79 572
80 572
80 573
80 575
81 573
81 574
82 574
82 575
82 578
83 575
83 576
84 576
84 577
85 577
85 578
85 581
86 578
86 579
87 579
87 580
88 580
88 581
88 584
89 581
89 582
90 582
90 583
91 583
91 584
91 587
92 584
92 585
93 585
93 586
94 586
94 587
94 589
95 587
95 588
96 588
96 589
96 592
97 589
97 590
98 590
98 591
99 591
99 592
99 593
100 592
100 593
100 596
101 593
101 594
102 594
102 595
103 595
103 596
103 597
104 596
104 597
104 600
105 597
105 598
106 598
106 599
107 599
107 600
107 604
108 600
108 601
109 601
109 602
110 602
110 603
111 603
111 604
111 605
112 604
112 605
112 609
113 605
113 606
114 606
114 607
115 607
115 608
116 608
116 609
116 611
117 609
117 610
118 610
118 611
118 613
119 611
119 612
120 612
120 613
120 614
121 613
121 614
121 615
122 614
122 615
122 619
123 615
123 616
124 616
124 617
125 617
125 618
126 618
126 619
126 620
127 619
127 620
127 624
128 620
128 621
129 621
129 622
130 622
130 623
131 623
131 624
131 627
132 624
132 625
133 625
133 626
134 626
134 627
134 630
135 627
135 628
136 628
136 629
137 629
137 630
137 632
138 630
138 631
139 631
139 632
139 633
140 632
140 633
140 634
141 633
141 634
141 635
142 634
142 635
142 636
143 635
143 636
143 640
144 636
144 637
145 637
145 638
146 638
146 639
147 639
147 640
147 643
148 640
148 641
149 641
149 642
150 642
150 643
150 647
151 643
151 644
152 644
152 645
153 645
153 646
154 646
154 647
154 649
155 647
155 648
156 648
156 649
156 651
157 649
157 650
158 650
158 651
158 655
159 651
159 652
160 652
160 653
161 653
161 654
162 654
162 655
162 658
163 655
163 656
164 656
164 657
165 657
165 658
165 659
166 658
166 659
166 663
167 659
167 660
168 660
168 661
169 661
169 662
170 662
170 663
170 665
171 663
171 664
172 664
172 665
172 667
173 665
173 666
174 666
174 667
174 668
175 667
175 668
175 671
176 668
176 669
177 669
177 670
178 670
178 671
178 675
179 671
179 672
180 672
180 673
181 673
181 674
182 674
182 675
182 677
183 675
183 676
184 676
184 677
184 678
185 677
185 678
185 679
186 678
186 679
186 683
187 679
187 680
188 680
188 681
189 681
189 682
190 682
190 683
190 685
191 683
191 684
192 684
192 685
192 686
193 685
193 686
193 687
194 686
194 687
194 688
195 687
195 688
195 690
196 688
196 689
197 689
197 690
197 693
198 690
198 691
199 691
199 692
200 692
200 693
200 694
201 693
201 694
201 696
202 694
202 695
203 695
203 696
203 697
204 696
204 697
204 698
205 697
205 698
205 702
206 698
206 699
207 699
207 700
208 700
208 701
209 701
209 702
209 704
210 702
210 703
211 703
211 704
211 707
212 704
212 705
213 705
213 706
214 706
214 707
214 708
215 707
215 708
215 711
216 708
216 709
217 709
217 710
218 710
218 711
218 713
219 711
219 712
220 712
220 713
220 717
221 713
221 714
222 714
222 715
223 715
223 716
224 716
224 717
224 720
225 717
225 718
226 718
226 719
227 719
227 720
227 724
228 720
228 721
229 721
229 722
230 722
230 723
231 723
231 724
231 725
232 724
232 725
232 727
233 725
233 726
234 726
234 727
234 731
235 727
235 728
236 728
236 729
237 729
237 730
238 730
238 731
238 732
239 731
239 732
239 736
240 732
240 733
241 733
241 734
242 734
242 735
243 735
243 736
243 738
244 736
244 737
245 737
245 738
245 739
246 738
246 739
246 742
247 739
247 740
248 740
248 741
249 741
249 742
249 744
250 742
250 743
251 743
251 744
251 745
252 744
252 745
252 748
253 745
253 746
254 746
254 747
255 747
255 748
255 752
256 748
256 749
257 749
257 750
258 750
258 751
259 751
259 752
259 755
260 752
260 753
261 753
261 754
262 754
262 755
262 758
263 755
263 756
264 756
264 757
265 757
265 758
265 759
266 758
266 759
266 760
267 759
267 760
267 761
268 760
268 761
268 762
269 761
269 762
269 765
270 762
270 763
271 763
271 764
272 764
272 765
272 766
273 765
273 766
273 770
274 766
274 767
275 767
275 768
276 768
276 769
277 769
277 770
277 774
278 770
278 771
279 771
279 772
280 772
280 773
281 773
281 774
281 778
282 774
282 775
283 775
283 776
284 776
284 777
285 777
285 778
285 782
286 778
286 779
287 779
287 780
288 780
288 781
289 781
289 782
289 783
290 782
290 783
290 785
291 783
291 784
292 784
292 785
292 789
293 785
293 786
294 786
294 787
295 787
295 788
296 788
296 789
296 793
297 789
297 790
298 790
298 791
299 791
299 792
300 792
300 793
300 794
301 793
301 794
301 797
302 794
302 795
303 795
303 796
304 796
304 797
304 801
305 797
305 798
306 798
306 799
307 799
307 800
308 800
308 801
308 804
309 801
309 802
310 802
310 803
311 803
311 804
311 808
312 804
312 805
313 805
313 806
314 806
314 807
315 807
315 808
315 812
316 808
316 809
317 809
317 810
318 810
318 811
319 811
319 812
319 815
320 812
320 813
321 813
321 814
322 814
322 815
322 817
323 815
323 816
324 816
324 817
324 821
325 817
325 818
326 818
326 819
327 819
327 820
328 820
328 821
328 824
329 821
329 822
330 822
330 823
331 823
331 824
331 826
332 824
332 825
333 825
333 826
333 830
334 826
334 827
335 827
335 828
336 828
336 829
337 829
337 830
337 834
338 830
338 831
339 831
339 832
340 832
340 833
341 833
341 834
341 838
342 834
342 835
343 835
343 836
344 836
344 837
345 837
345 838
345 839
346 838
346 839
346 840
347 839
347 840
347 842
348 840
348 841
349 841
349 842
349 845
350 842
350 843
351 843
351 844
352 844
352 845
352 847
353 845
353 846
354 846
354 847
354 848
355 847
355 848
355 852
356 848
356 849
357 849
357 850
358 850
358 851
359 851
359 852
359 855
360 852
360 853
361 853
361 854
362 854
362 855
362 857
363 855
363 856
364 856
364 857
364 860
365 857
365 858
366 858
366 859
367 859
367 860
367 862
368 860
368 861
369 861
369 862
369 865
370 862
370 863
371 863
371 864
372 864
372 865
372 866
373 865
373 866
373 868
374 866
374 867
375 867
375 868
375 871
376 868
376 869
377 869
377 870
378 870
378 871
378 874
379 871
379 872
380 872
380 873
381 873
381 874
381 877
382 874
382 875
383 875
383 876
384 876
384 877
384 878
385 877
385 878
385 881
386 878
386 879
387 879
387 880
388 880
388 881
388 885
389 881
389 882
390 882
390 883
391 883
391 884
392 884
392 885
392 888
393 885
393 886
394 886
394 887
395 887
395 888
395 890
396 888
396 889
397 889
397 890
397 893
398 890
398 891
399 891
399 892
400 892
400 893
400 895
401 893
401 894
402 894
402 895
402 898
403 895
403 896
404 896
404 897
405 897
405 898
405 901
406 898
406 899
407 899
407 900
408 900
408 901
408 905
409 901
409 902
410 902
410 903
411 903
411 904
412 904
412 905
412 907
413 905
413 906
414 906
414 907
414 909
415 907
415 908
416 908
416 909
416 911
417 909
417 910
418 910
418 911
418 912
419 911
419 912
419 913
420 912
420 913
420 914
421 913
421 914
421 915
422 914
422 915
422 917
423 915
423 916
424 916
424 917
424 920
425 917
425 918
426 918
426 919
427 919
427 920
427 921
428 920
428 921
428 925
429 921
429 922
430 922
430 923
431 923
431 924
432 924
432 925
432 927
433 925
433 926
434 926
434 927
434 931
435 927
435 928
436 928
436 929
437 929
437 930
438 930
438 931
438 933
439 931
439 932
440 932
440 933
440 937
441 933
441 934
442 934
442 935
443 935
443 936
444 936
444 937
444 939
445 937
445 938
446 938
446 939
446 942
447 939
447 940
448 940
448 941
449 941
449 942
449 945
450 942
450 943
451 943
451 944
452 944
452 945
452 949
453 945
453 946
454 946
454 947
455 947
455 948
456 948
456 949
456 951
457 949
457 950
458 950
458 951
458 952
459 951
459 952
459 956
460 952
460 953
461 953
461 954
462 954
462 955
463 955
463 956
463 957
464 956
464 957
464 960
465 957
465 958
466 958
466 959
467 959
467 960
467 961
468 960
468 961
468 964
469 961
469 962
470 962
470 963
471 963
471 964
471 967
472 964
472 965
473 965
473 966
474 966
474 967
474 971
475 967
475 968
476 968
476 969
477 969
477 970
478 970
478 971
478 972
479 971
479 972
479 974
480 972
480 973
481 973
481 974
481 975
482 974
482 975
482 976
483 975
483 976
483 980
484 976
484 977
485 977
485 978
486 978
486 979
487 979
487 980
487 981
488 980
488 981
488 983
489 981
489 982
490 982
490 983
490 986
491 983
491 984
492 984
492 985
493 985
493 986